c 63_4_checker_5cl.cnf
c
c field = 63
c formula set type = 4_checker_5cl
c
p cnf 5 10
120 
122 
126 
128 
-130 
121 
123 
127 
129 
-131 
4 
34 
64 
94 
-154 
5 
35 
65 
95 
-155 
60 
92 
156 
188 
-220 
61 
93 
157 
189 
-221 
12 
40 
68 
96 
-152 
13 
41 
69 
97 
-153 
68 
96 
152 
180 
-40 
69 
97 
153 
181 
-41 
